188	32	4	87	
10	10	10	10

0	0	0	0	0	0	5	1	4	10	29	30
1	1	1	1	0	10	3	17	15	2
2	7	0	1	1	4	3	13	6	3
3	0	4	7	3	3	3	22	19	5
4	0	5	4	6	1	1	5
5	2	0	7	4	7	2	27	7
6	3	3	0	6	7	3	28	27	8
7	0	2	2	1	2	3	28	16	9
8	6	4	0	2	9	3	19	16	12
9	2	0	4	5	5	1	11
10	4	4	0	5	8	2	16	14
11	2	4	0	3	7	1	12
12	0	2	1	4	8	2	26	14
13	3	4	0	4	2	4	26	25	20	18
14	0	7	5	3	3	3	25	20	18
15	8	4	0	4	10	3	25	20	18
16	0	7	6	2	5	3	26	25	18
17	3	6	5	0	6	2	21	18
18	4	6	6	0	7	2	24	23
19	0	3	4	4	3	2	24	23
20	6	4	2	0	10	1	21
21	7	5	0	2	10	1	23
22	4	0	6	4	4	1	27
23	4	2	0	7	6	1	31
24	5	0	3	5	6	1	31
25	0	4	4	5	10	1	31
26	0	3	2	5	5	1	31
27	0	4	5	4	5	1	31
28	3	5	5	0	8	1	31
29	2	5	3	0	10	1	31
30	0	2	5	7	7	1	31
31	0	0	0	0	0	0
